; COMMAND-LINE: --solve-int-as-bag
; EXPECT: unsat
; DISABLE-TESTER: model
(set-logic ALL)
(set-info :status unsat)
(set-option :incremental false)
(declare-fun x0 () Int)
(declare-fun x1 () Int)
(declare-fun x2 () Int)
(declare-fun x3 () Int)
(declare-fun x4 () Int)
(declare-fun x5 () Int)
(declare-fun x6 () Int)
(declare-fun x7 () Int)
(declare-fun x8 () Int)
(declare-fun x9 () Int)
(declare-fun x10 () Int)
(declare-fun x11 () Int)
(declare-fun x12 () Int)
(declare-fun x13 () Int)
(declare-fun x14 () Int)
(declare-fun x15 () Int)
(declare-fun x16 () Int)
(declare-fun x17 () Int)
(declare-fun x18 () Int)
(declare-fun x19 () Int)
(declare-fun x20 () Int)
(declare-fun x21 () Int)
(declare-fun x22 () Int)
(declare-fun x23 () Int)
(declare-fun x24 () Int)
(declare-fun x25 () Int)
(assert (>= x0 0))
(assert (>= x1 0))
(assert (>= x2 0))
(assert (>= x3 0))
(assert (>= x4 0))
(assert (>= x5 0))
(assert (>= x6 0))
(assert (>= x7 0))
(assert (>= x8 0))
(assert (>= x9 0))
(assert (>= x10 0))
(assert (>= x11 0))
(assert (>= x12 0))
(assert (>= x13 0))
(assert (>= x14 0))
(assert (>= x15 0))
(assert (>= x17 0))
(assert (>= x18 0))
(assert (>= x18 0))
(assert (>= x19 0))
(assert (>= x20 0))
(assert (>= x21 0))
(assert (>= x22 0))
(assert (>= x23 0))
(assert (>= x24 0))
(assert (>= x25 0))
(assert (= (* (* (* (* (* (* (* (* (* (* (* (* (* (* (* (* (* (* (* (* (* (* (* (* (* x0 x1) x2) x3) x4) x5) x6) x7) x8) x9) x10) x11) x12) x13) x14) x15) x16) x17) x18) x19) x20) x21) x22) x23) x24) x25) 7))
(assert (distinct x0 7))
(assert (distinct x1 7))
(assert (distinct x2 7))
(assert (distinct x3 7))
(assert (distinct x4 7))
(assert (distinct x5 7))
(assert (distinct x6 7))
(assert (distinct x7 7))
(assert (distinct x8 7))
(assert (distinct x9 7))
(assert (distinct x10 7))
(assert (distinct x11 7))
(assert (distinct x12 7))
(assert (distinct x13 7))
(assert (distinct x14 7))
(assert (distinct x15 7))
(assert (distinct x16 7))
(assert (distinct x17 7))
(assert (distinct x18 7))
(assert (distinct x19 7))
(assert (distinct x20 7))
(assert (distinct x21 7))
(assert (distinct x22 7))
(assert (distinct x23 7))
(assert (distinct x24 7))
(assert (distinct x25 7))
(assert (distinct x0 1))
(assert (distinct x1 1))
(assert (distinct x2 1))
(assert (distinct x3 1))
(assert (distinct x4 1))
(assert (distinct x5 1))
(assert (distinct x6 1))
(assert (distinct x7 1))
(assert (distinct x8 1))
(assert (distinct x9 1))
(assert (distinct x10 1))
(assert (distinct x11 1))
(assert (distinct x12 1))
(assert (distinct x13 1))
(assert (distinct x14 1))
(assert (distinct x15 1))
(assert (distinct x16 1))
(assert (distinct x17 1))
(assert (distinct x18 1))
(assert (distinct x19 1))
(assert (distinct x20 1))
(assert (distinct x21 1))
(assert (distinct x22 1))
(assert (distinct x23 1))
(assert (distinct x24 1))
(assert (distinct x25 1))
(check-sat)
